\* StaffSchedulingProblem *\
Minimize
OBJ: - H_1_1_1 - H_1_1_2 - H_1_1_3 - H_1_1_4 - H_1_2_1 - H_1_2_2 - H_1_2_3
 - H_1_2_4 - H_1_3_1 - H_1_3_2 - H_1_3_3 - H_1_3_4 - H_1_4_1 - H_1_4_2
 - H_1_4_3 - H_1_4_4 - H_1_5_1 - H_1_5_2 - H_1_5_3 - H_1_5_4 - H_2_1_1
 - H_2_1_2 - H_2_1_3 - H_2_1_4 - H_2_2_1 - H_2_2_2 - H_2_2_3 - H_2_2_4
 - H_2_3_1 - H_2_3_2 - H_2_3_3 - H_2_3_4 - H_2_4_1 - H_2_4_2 - H_2_4_3
 - H_2_4_4 - H_2_5_1 - H_2_5_2 - H_2_5_3 - H_2_5_4 - H_3_1_1 - H_3_1_2
 - H_3_1_3 - H_3_1_4 - H_3_2_1 - H_3_2_2 - H_3_2_3 - H_3_2_4 - H_3_3_1
 - H_3_3_2 - H_3_3_3 - H_3_3_4 - H_3_4_1 - H_3_4_2 - H_3_4_3 - H_3_4_4
 - H_3_5_1 - H_3_5_2 - H_3_5_3 - H_3_5_4 - H_4_1_1 - H_4_1_2 - H_4_1_3
 - H_4_1_4 - H_4_2_1 - H_4_2_2 - H_4_2_3 - H_4_2_4 - H_4_3_1 - H_4_3_2
 - H_4_3_3 - H_4_3_4 - H_4_4_1 - H_4_4_2 - H_4_4_3 - H_4_4_4 - H_4_5_1
 - H_4_5_2 - H_4_5_3 - H_4_5_4 + 0.5 Nf_1 + 0.5 Nf_2 + 0.5 Nf_3 + 0.5 Nf_4
 + 0.5 Nf_5
Subject To
_C1: H_1_1_1 + H_1_2_1 + H_1_3_1 + H_1_4_1 + H_1_5_1 <= 600
_C10: H_3_1_2 + H_3_2_2 + H_3_3_2 + H_3_4_2 + H_3_5_2 <= 600
_C11: H_3_1_3 + H_3_2_3 + H_3_3_3 + H_3_4_3 + H_3_5_3 <= 540
_C12: H_3_1_4 + H_3_2_4 + H_3_3_4 + H_3_4_4 + H_3_5_4 <= 540
_C13: H_4_1_1 + H_4_2_1 + H_4_3_1 + H_4_4_1 + H_4_5_1 <= 600
_C14: H_4_1_2 + H_4_2_2 + H_4_3_2 + H_4_4_2 + H_4_5_2 <= 600
_C15: H_4_1_3 + H_4_2_3 + H_4_3_3 + H_4_4_3 + H_4_5_3 <= 540
_C16: H_4_1_4 + H_4_2_4 + H_4_3_4 + H_4_4_4 + H_4_5_4 <= 540
_C17: H_1_1_1 + H_1_1_2 + H_1_1_3 + H_1_1_4 + H_2_1_1 + H_2_1_2 + H_2_1_3
 + H_2_1_4 + H_3_1_1 + H_3_1_2 + H_3_1_3 + H_3_1_4 + H_4_1_1 + H_4_1_2
 + H_4_1_3 + H_4_1_4 <= 2200
_C18: H_1_2_1 + H_1_2_2 + H_1_2_3 + H_1_2_4 + H_2_2_1 + H_2_2_2 + H_2_2_3
 + H_2_2_4 + H_3_2_1 + H_3_2_2 + H_3_2_3 + H_3_2_4 + H_4_2_1 + H_4_2_2
 + H_4_2_3 + H_4_2_4 <= 980
_C19: H_1_3_1 + H_1_3_2 + H_1_3_3 + H_1_3_4 + H_2_3_1 + H_2_3_2 + H_2_3_3
 + H_2_3_4 + H_3_3_1 + H_3_3_2 + H_3_3_3 + H_3_3_4 + H_4_3_1 + H_4_3_2
 + H_4_3_3 + H_4_3_4 <= 975
_C2: H_1_1_2 + H_1_2_2 + H_1_3_2 + H_1_4_2 + H_1_5_2 <= 600
_C20: H_1_4_1 + H_1_4_2 + H_1_4_3 + H_1_4_4 + H_2_4_1 + H_2_4_2 + H_2_4_3
 + H_2_4_4 + H_3_4_1 + H_3_4_2 + H_3_4_3 + H_3_4_4 + H_4_4_1 + H_4_4_2
 + H_4_4_3 + H_4_4_4 <= 3735
_C21: H_1_5_1 + H_1_5_2 + H_1_5_3 + H_1_5_4 + H_2_5_1 + H_2_5_2 + H_2_5_3
 + H_2_5_4 + H_3_5_1 + H_3_5_2 + H_3_5_3 + H_3_5_4 + H_4_5_1 + H_4_5_2
 + H_4_5_3 + H_4_5_4 <= 750
_C22: Fcp_1_1 - H_1_1_1 - H_1_1_2 - H_1_1_3 - H_1_1_4 = 0
_C23: Fcp_2_1 - H_2_1_1 - H_2_1_2 - H_2_1_3 - H_2_1_4 = 0
_C24: Fcp_3_1 - H_3_1_1 - H_3_1_2 - H_3_1_3 - H_3_1_4 = 0
_C25: Fcp_4_1 - H_4_1_1 - H_4_1_2 - H_4_1_3 - H_4_1_4 = 0
_C26: Fcp_1_2 - H_1_2_1 - H_1_2_2 - H_1_2_3 - H_1_2_4 = 0
_C27: Fcp_2_2 - H_2_2_1 - H_2_2_2 - H_2_2_3 - H_2_2_4 = 0
_C28: Fcp_3_2 - H_3_2_1 - H_3_2_2 - H_3_2_3 - H_3_2_4 = 0
_C29: Fcp_4_2 - H_4_2_1 - H_4_2_2 - H_4_2_3 - H_4_2_4 = 0
_C3: H_1_1_3 + H_1_2_3 + H_1_3_3 + H_1_4_3 + H_1_5_3 <= 540
_C30: Fcp_1_3 - H_1_3_1 - H_1_3_2 - H_1_3_3 - H_1_3_4 = 0
_C31: Fcp_2_3 - H_2_3_1 - H_2_3_2 - H_2_3_3 - H_2_3_4 = 0
_C32: Fcp_3_3 - H_3_3_1 - H_3_3_2 - H_3_3_3 - H_3_3_4 = 0
_C33: Fcp_4_3 - H_4_3_1 - H_4_3_2 - H_4_3_3 - H_4_3_4 = 0
_C34: Fcp_1_4 - H_1_4_1 - H_1_4_2 - H_1_4_3 - H_1_4_4 = 0
_C35: Fcp_2_4 - H_2_4_1 - H_2_4_2 - H_2_4_3 - H_2_4_4 = 0
_C36: Fcp_3_4 - H_3_4_1 - H_3_4_2 - H_3_4_3 - H_3_4_4 = 0
_C37: Fcp_4_4 - H_4_4_1 - H_4_4_2 - H_4_4_3 - H_4_4_4 = 0
_C38: Fcp_1_5 - H_1_5_1 - H_1_5_2 - H_1_5_3 - H_1_5_4 = 0
_C39: Fcp_2_5 - H_2_5_1 - H_2_5_2 - H_2_5_3 - H_2_5_4 = 0
_C4: H_1_1_4 + H_1_2_4 + H_1_3_4 + H_1_4_4 + H_1_5_4 <= 540
_C40: Fcp_3_5 - H_3_5_1 - H_3_5_2 - H_3_5_3 - H_3_5_4 = 0
_C41: Fcp_4_5 - H_4_5_1 - H_4_5_2 - H_4_5_3 - H_4_5_4 = 0
_C42: - 20000 Bcp_1_1 + Fcp_1_1 >= -19999.999
_C43: - 20000 Bcp_1_1 + Fcp_1_1 <= 0
_C44: - 20000 Bcp_2_1 + Fcp_2_1 >= -19999.999
_C45: - 20000 Bcp_2_1 + Fcp_2_1 <= 0
_C46: - 20000 Bcp_3_1 + Fcp_3_1 >= -19999.999
_C47: - 20000 Bcp_3_1 + Fcp_3_1 <= 0
_C48: - 20000 Bcp_4_1 + Fcp_4_1 >= -19999.999
_C49: - 20000 Bcp_4_1 + Fcp_4_1 <= 0
_C5: H_2_1_1 + H_2_2_1 + H_2_3_1 + H_2_4_1 + H_2_5_1 <= 600
_C50: - 20000 Bcp_1_2 + Fcp_1_2 >= -19999.999
_C51: - 20000 Bcp_1_2 + Fcp_1_2 <= 0
_C52: - 20000 Bcp_2_2 + Fcp_2_2 >= -19999.999
_C53: - 20000 Bcp_2_2 + Fcp_2_2 <= 0
_C54: - 20000 Bcp_3_2 + Fcp_3_2 >= -19999.999
_C55: - 20000 Bcp_3_2 + Fcp_3_2 <= 0
_C56: - 20000 Bcp_4_2 + Fcp_4_2 >= -19999.999
_C57: - 20000 Bcp_4_2 + Fcp_4_2 <= 0
_C58: - 20000 Bcp_1_3 + Fcp_1_3 >= -19999.999
_C59: - 20000 Bcp_1_3 + Fcp_1_3 <= 0
_C6: H_2_1_2 + H_2_2_2 + H_2_3_2 + H_2_4_2 + H_2_5_2 <= 600
_C60: - 20000 Bcp_2_3 + Fcp_2_3 >= -19999.999
_C61: - 20000 Bcp_2_3 + Fcp_2_3 <= 0
_C62: - 20000 Bcp_3_3 + Fcp_3_3 >= -19999.999
_C63: - 20000 Bcp_3_3 + Fcp_3_3 <= 0
_C64: - 20000 Bcp_4_3 + Fcp_4_3 >= -19999.999
_C65: - 20000 Bcp_4_3 + Fcp_4_3 <= 0
_C66: - 20000 Bcp_1_4 + Fcp_1_4 >= -19999.999
_C67: - 20000 Bcp_1_4 + Fcp_1_4 <= 0
_C68: - 20000 Bcp_2_4 + Fcp_2_4 >= -19999.999
_C69: - 20000 Bcp_2_4 + Fcp_2_4 <= 0
_C7: H_2_1_3 + H_2_2_3 + H_2_3_3 + H_2_4_3 + H_2_5_3 <= 540
_C70: - 20000 Bcp_3_4 + Fcp_3_4 >= -19999.999
_C71: - 20000 Bcp_3_4 + Fcp_3_4 <= 0
_C72: - 20000 Bcp_4_4 + Fcp_4_4 >= -19999.999
_C73: - 20000 Bcp_4_4 + Fcp_4_4 <= 0
_C74: - 20000 Bcp_1_5 + Fcp_1_5 >= -19999.999
_C75: - 20000 Bcp_1_5 + Fcp_1_5 <= 0
_C76: - 20000 Bcp_2_5 + Fcp_2_5 >= -19999.999
_C77: - 20000 Bcp_2_5 + Fcp_2_5 <= 0
_C78: - 20000 Bcp_3_5 + Fcp_3_5 >= -19999.999
_C79: - 20000 Bcp_3_5 + Fcp_3_5 <= 0
_C8: H_2_1_4 + H_2_2_4 + H_2_3_4 + H_2_4_4 + H_2_5_4 <= 540
_C80: - 20000 Bcp_4_5 + Fcp_4_5 >= -19999.999
_C81: - 20000 Bcp_4_5 + Fcp_4_5 <= 0
_C82: - Bcp_1_1 - Bcp_2_1 - Bcp_3_1 - Bcp_4_1 + Nf_1 = 0
_C83: - Bcp_1_2 - Bcp_2_2 - Bcp_3_2 - Bcp_4_2 + Nf_2 = 0
_C84: - Bcp_1_3 - Bcp_2_3 - Bcp_3_3 - Bcp_4_3 + Nf_3 = 0
_C85: - Bcp_1_4 - Bcp_2_4 - Bcp_3_4 - Bcp_4_4 + Nf_4 = 0
_C86: - Bcp_1_5 - Bcp_2_5 - Bcp_3_5 - Bcp_4_5 + Nf_5 = 0
_C9: H_3_1_1 + H_3_2_1 + H_3_3_1 + H_3_4_1 + H_3_5_1 <= 600
Bounds
 0 <= Fcp_1_1 <= 10000
 0 <= Fcp_1_2 <= 10000
 0 <= Fcp_1_3 <= 10000
 0 <= Fcp_1_4 <= 10000
 0 <= Fcp_1_5 <= 10000
 0 <= Fcp_2_1 <= 10000
 0 <= Fcp_2_2 <= 10000
 0 <= Fcp_2_3 <= 10000
 0 <= Fcp_2_4 <= 10000
 0 <= Fcp_2_5 <= 10000
 0 <= Fcp_3_1 <= 10000
 0 <= Fcp_3_2 <= 10000
 0 <= Fcp_3_3 <= 10000
 0 <= Fcp_3_4 <= 10000
 0 <= Fcp_3_5 <= 10000
 0 <= Fcp_4_1 <= 10000
 0 <= Fcp_4_2 <= 10000
 0 <= Fcp_4_3 <= 10000
 0 <= Fcp_4_4 <= 10000
 0 <= Fcp_4_5 <= 10000
 0 <= H_1_1_1 <= 600
 0 <= H_1_1_2 <= 600
 0 <= H_1_1_3 <= 600
 0 <= H_1_1_4 <= 600
 0 <= H_1_2_1 <= 600
 0 <= H_1_2_2 <= 600
 0 <= H_1_2_3 <= 600
 0 <= H_1_2_4 <= 600
 0 <= H_1_3_1 <= 600
 0 <= H_1_3_2 <= 600
 0 <= H_1_3_3 <= 600
 0 <= H_1_3_4 <= 600
 0 <= H_1_4_1 <= 600
 0 <= H_1_4_2 <= 600
 0 <= H_1_4_3 <= 600
 0 <= H_1_4_4 <= 600
 0 <= H_1_5_1 <= 600
 0 <= H_1_5_2 <= 600
 0 <= H_1_5_3 <= 600
 0 <= H_1_5_4 <= 600
 0 <= H_2_1_1 <= 600
 0 <= H_2_1_2 <= 600
 0 <= H_2_1_3 <= 600
 0 <= H_2_1_4 <= 600
 0 <= H_2_2_1 <= 600
 0 <= H_2_2_2 <= 600
 0 <= H_2_2_3 <= 600
 0 <= H_2_2_4 <= 600
 0 <= H_2_3_1 <= 600
 0 <= H_2_3_2 <= 600
 0 <= H_2_3_3 <= 600
 0 <= H_2_3_4 <= 600
 0 <= H_2_4_1 <= 600
 0 <= H_2_4_2 <= 600
 0 <= H_2_4_3 <= 600
 0 <= H_2_4_4 <= 600
 0 <= H_2_5_1 <= 600
 0 <= H_2_5_2 <= 600
 0 <= H_2_5_3 <= 600
 0 <= H_2_5_4 <= 600
 0 <= H_3_1_1 <= 600
 0 <= H_3_1_2 <= 600
 0 <= H_3_1_3 <= 600
 0 <= H_3_1_4 <= 600
 0 <= H_3_2_1 <= 600
 0 <= H_3_2_2 <= 600
 0 <= H_3_2_3 <= 600
 0 <= H_3_2_4 <= 600
 0 <= H_3_3_1 <= 600
 0 <= H_3_3_2 <= 600
 0 <= H_3_3_3 <= 600
 0 <= H_3_3_4 <= 600
 0 <= H_3_4_1 <= 600
 0 <= H_3_4_2 <= 600
 0 <= H_3_4_3 <= 600
 0 <= H_3_4_4 <= 600
 0 <= H_3_5_1 <= 600
 0 <= H_3_5_2 <= 600
 0 <= H_3_5_3 <= 600
 0 <= H_3_5_4 <= 600
 0 <= H_4_1_1 <= 600
 0 <= H_4_1_2 <= 600
 0 <= H_4_1_3 <= 600
 0 <= H_4_1_4 <= 600
 0 <= H_4_2_1 <= 600
 0 <= H_4_2_2 <= 600
 0 <= H_4_2_3 <= 600
 0 <= H_4_2_4 <= 600
 0 <= H_4_3_1 <= 600
 0 <= H_4_3_2 <= 600
 0 <= H_4_3_3 <= 600
 0 <= H_4_3_4 <= 600
 0 <= H_4_4_1 <= 600
 0 <= H_4_4_2 <= 600
 0 <= H_4_4_3 <= 600
 0 <= H_4_4_4 <= 600
 0 <= H_4_5_1 <= 600
 0 <= H_4_5_2 <= 600
 0 <= H_4_5_3 <= 600
 0 <= H_4_5_4 <= 600
 0 <= Nf_1 <= 20
 0 <= Nf_2 <= 20
 0 <= Nf_3 <= 20
 0 <= Nf_4 <= 20
 0 <= Nf_5 <= 20
Generals
Fcp_1_1
Fcp_1_2
Fcp_1_3
Fcp_1_4
Fcp_1_5
Fcp_2_1
Fcp_2_2
Fcp_2_3
Fcp_2_4
Fcp_2_5
Fcp_3_1
Fcp_3_2
Fcp_3_3
Fcp_3_4
Fcp_3_5
Fcp_4_1
Fcp_4_2
Fcp_4_3
Fcp_4_4
Fcp_4_5
H_1_1_1
H_1_1_2
H_1_1_3
H_1_1_4
H_1_2_1
H_1_2_2
H_1_2_3
H_1_2_4
H_1_3_1
H_1_3_2
H_1_3_3
H_1_3_4
H_1_4_1
H_1_4_2
H_1_4_3
H_1_4_4
H_1_5_1
H_1_5_2
H_1_5_3
H_1_5_4
H_2_1_1
H_2_1_2
H_2_1_3
H_2_1_4
H_2_2_1
H_2_2_2
H_2_2_3
H_2_2_4
H_2_3_1
H_2_3_2
H_2_3_3
H_2_3_4
H_2_4_1
H_2_4_2
H_2_4_3
H_2_4_4
H_2_5_1
H_2_5_2
H_2_5_3
H_2_5_4
H_3_1_1
H_3_1_2
H_3_1_3
H_3_1_4
H_3_2_1
H_3_2_2
H_3_2_3
H_3_2_4
H_3_3_1
H_3_3_2
H_3_3_3
H_3_3_4
H_3_4_1
H_3_4_2
H_3_4_3
H_3_4_4
H_3_5_1
H_3_5_2
H_3_5_3
H_3_5_4
H_4_1_1
H_4_1_2
H_4_1_3
H_4_1_4
H_4_2_1
H_4_2_2
H_4_2_3
H_4_2_4
H_4_3_1
H_4_3_2
H_4_3_3
H_4_3_4
H_4_4_1
H_4_4_2
H_4_4_3
H_4_4_4
H_4_5_1
H_4_5_2
H_4_5_3
H_4_5_4
Nf_1
Nf_2
Nf_3
Nf_4
Nf_5
Binaries
Bcp_1_1
Bcp_1_2
Bcp_1_3
Bcp_1_4
Bcp_1_5
Bcp_2_1
Bcp_2_2
Bcp_2_3
Bcp_2_4
Bcp_2_5
Bcp_3_1
Bcp_3_2
Bcp_3_3
Bcp_3_4
Bcp_3_5
Bcp_4_1
Bcp_4_2
Bcp_4_3
Bcp_4_4
Bcp_4_5
End
